130
1017
99
0 4
0 36
0 53
0 68
1 3
1 6
1 11
1 13
1 15
1 23
1 24
1 63
1 66
1 77
1 108
1 116
1 124
1 125
2 5
2 9
2 10
2 12
2 14
2 21
2 22
2 25
2 27
2 28
2 31
2 37
2 40
2 46
2 47
2 62
2 65
2 70
2 73
2 76
2 98
2 113
2 114
2 115
2 123
3 6
3 11
3 13
3 15
3 23
3 24
3 55
3 60
3 61
3 64
3 67
3 72
3 80
3 88
3 91
3 125
4 8
4 16
4 19
4 20
4 26
4 34
4 36
4 41
4 42
4 53
4 59
4 68
4 100
4 101
5 9
5 10
5 12
5 14
5 21
5 22
5 25
5 27
5 28
5 31
5 37
5 42
5 44
5 49
5 50
5 51
5 62
5 65
5 70
5 89
5 92
5 111
5 124
5 126
5 127
6 11
6 13
6 15
6 23
6 24
6 43
6 55
6 60
6 61
6 64
6 67
6 74
6 81
6 85
6 90
6 125
7 9
7 12
7 14
7 32
7 38
7 96
7 104
8 16
8 19
8 20
8 26
8 29
8 33
8 99
8 102
8 106
9 10
9 12
9 14
9 21
9 22
9 25
9 27
9 28
9 32
9 38
9 65
9 96
9 104
10 11
10 12
10 13
10 14
10 15
10 21
10 22
10 24
10 25
10 27
10 28
10 30
10 31
10 37
10 62
10 65
10 70
10 94
11 13
11 15
11 23
11 24
11 30
11 31
11 63
11 66
11 77
11 94
11 108
11 116
11 124
11 125
12 14
12 21
12 22
12 25
12 27
12 28
12 32
12 37
12 38
12 40
12 46
12 47
12 65
12 73
12 76
12 96
12 98
12 104
12 113
12 114
12 115
12 123
13 15
13 23
13 24
13 30
13 31
13 94
13 125
14 21
14 22
14 25
14 27
14 28
14 32
14 33
14 38
14 43
14 48
14 58
14 65
14 85
14 86
14 87
14 88
14 90
14 91
14 96
14 102
14 104
15 23
15 24
15 30
15 31
15 55
15 60
15 61
15 64
15 67
15 94
15 125
16 19
16 20
16 26
16 34
16 41
16 42
16 59
16 100
16 101
17 23
17 29
17 36
17 45
17 82
17 93
17 121
17 125
18 19
18 20
18 24
18 26
18 35
18 69
19 20
19 24
19 26
19 35
19 69
20 24
20 26
20 29
20 33
20 35
20 69
20 99
20 102
20 106
21 22
21 25
21 27
21 28
21 65
22 25
22 27
22 28
22 37
22 40
22 46
22 47
22 65
22 73
22 76
22 98
22 113
22 114
22 115
22 123
23 24
23 29
23 36
23 45
23 82
23 93
23 121
23 125
24 26
24 30
24 31
24 35
24 69
24 94
24 125
25 27
25 28
25 33
25 43
25 48
25 58
25 65
25 102
26 34
26 35
26 41
26 42
26 59
26 69
26 100
26 101
27 28
27 44
27 49
27 50
27 51
27 65
27 89
27 92
27 120
27 128
28 44
28 49
28 50
28 51
28 65
28 89
28 92
29 33
29 35
29 36
29 43
29 44
29 45
29 56
29 58
29 69
29 71
29 82
29 83
29 93
29 99
29 102
29 106
29 121
29 125
30 31
30 32
30 38
30 52
30 94
30 95
30 96
30 104
31 32
31 37
31 38
31 52
31 62
31 65
31 70
31 94
31 95
31 96
31 104
32 38
32 52
32 94
32 95
32 96
32 104
33 35
33 36
33 43
33 44
33 48
33 56
33 58
33 85
33 86
33 87
33 88
33 90
33 91
33 99
33 102
33 106
34 41
34 42
34 59
34 100
34 101
35 36
35 43
35 44
35 45
35 56
35 58
35 69
35 71
35 82
35 83
35 93
35 102
35 106
35 121
35 125
36 43
36 44
36 45
36 53
36 56
36 58
36 68
36 69
36 71
36 82
36 83
36 93
36 102
36 106
36 121
36 125
37 40
37 47
37 53
37 55
37 57
37 60
37 61
37 62
37 65
37 68
37 70
37 76
37 103
37 112
37 115
37 123
38 39
38 41
38 42
38 52
38 54
38 59
38 94
38 95
38 96
38 98
38 104
39 41
39 42
39 52
39 54
39 59
39 98
40 47
40 76
40 115
40 123
41 42
41 52
41 54
41 59
41 98
42 52
42 54
42 59
42 93
42 98
42 111
42 124
42 126
42 127
43 44
43 48
43 56
43 58
43 61
43 64
43 74
43 81
43 85
43 86
43 87
43 88
43 90
43 91
43 102
43 106
44 49
44 50
44 51
44 56
44 58
44 89
44 92
44 102
44 106
45 69
45 71
45 82
45 83
45 93
45 121
45 125
46 47
46 73
46 76
46 98
46 113
46 114
46 115
46 123
47 73
47 76
47 98
47 113
47 114
47 115
47 123
48 58
48 102
49 50
49 51
49 88
49 89
49 92
49 119
49 129
50 51
50 89
50 92
50 120
50 128
51 89
51 92
52 54
52 56
52 58
52 59
52 63
52 94
52 95
52 96
52 98
52 104
53 55
53 57
53 60
53 61
53 62
53 65
53 68
53 70
53 103
53 112
54 56
54 58
54 59
54 63
54 98
55 57
55 60
55 61
55 64
55 67
55 69
55 71
55 73
55 75
55 76
55 79
55 82
55 83
55 84
55 89
55 92
55 101
55 113
55 118
55 127
55 128
56 58
56 59
56 63
56 102
56 106
57 60
57 61
58 59
58 63
58 102
58 106
59 63
59 98
60 61
60 64
60 67
60 72
60 80
60 88
60 91
61 64
61 67
61 74
61 81
61 85
61 90
62 65
62 68
62 70
62 103
62 112
63 66
63 77
63 108
63 116
63 124
64 67
64 74
64 81
64 85
64 90
64 93
64 98
64 107
64 114
64 115
64 119
64 120
64 121
64 122
64 123
64 125
65 68
65 70
65 103
65 112
66 77
66 108
66 116
66 124
68 70
68 77
68 78
68 86
68 103
68 108
68 109
68 112
68 116
68 124
69 71
69 73
69 75
69 76
69 79
69 82
69 83
69 84
69 89
69 92
69 93
69 101
69 113
69 118
69 121
69 125
69 127
69 128
70 77
70 78
70 86
70 103
70 108
70 109
70 112
70 116
70 124
71 73
71 75
71 76
71 79
71 82
71 83
71 84
71 89
71 92
71 93
71 101
71 113
71 118
71 121
71 125
71 127
71 128
72 80
72 88
72 91
72 94
72 95
72 96
72 97
72 99
72 102
72 104
72 105
72 106
73 75
73 76
73 79
73 82
73 83
73 84
73 89
73 92
73 98
73 101
73 113
73 114
73 115
73 118
73 123
73 127
73 128
74 81
74 85
74 90
74 93
74 98
74 107
74 114
74 115
74 119
74 120
74 121
74 122
74 123
74 125
75 76
75 79
75 82
75 83
75 84
75 89
75 92
75 101
75 113
75 118
75 127
75 128
76 79
76 82
76 83
76 84
76 89
76 92
76 98
76 101
76 113
76 114
76 115
76 118
76 123
76 127
76 128
77 78
77 86
77 103
77 108
77 109
77 112
77 116
77 124
78 86
78 103
78 108
78 109
78 112
78 116
78 124
79 101
79 113
79 118
79 127
79 128
80 88
80 91
81 85
81 90
82 83
82 84
82 89
82 92
82 93
82 113
82 121
82 125
83 84
83 89
83 92
83 93
83 113
83 121
83 125
84 89
84 92
84 113
85 86
85 87
85 88
85 90
85 91
85 93
85 98
85 107
85 114
85 115
85 119
85 120
85 121
85 122
85 123
85 125
86 87
86 88
86 90
86 91
86 103
86 108
86 109
86 112
86 116
86 124
87 88
87 90
87 91
88 89
88 90
88 91
88 107
88 111
88 119
88 129
89 92
89 113
89 119
89 129
90 91
91 107
91 111
92 113
93 98
93 107
93 114
93 115
93 121
93 122
93 123
93 125
94 95
94 96
94 97
94 99
94 102
94 104
94 105
94 106
95 96
95 97
95 99
95 102
95 104
95 105
95 106
96 97
96 99
96 102
96 104
96 105
96 106
97 99
97 102
97 104
97 105
97 106
98 107
98 113
98 114
98 115
98 121
98 122
98 123
98 125
99 102
99 104
99 105
99 106
100 101
100 103
100 108
100 109
100 110
100 128
101 103
101 108
101 109
101 110
101 113
101 118
101 127
101 128
102 104
102 105
102 106
103 108
103 109
103 110
103 112
103 116
103 124
103 128
104 105
104 106
105 106
107 111
107 114
107 115
107 121
107 122
107 123
107 125
108 109
108 110
108 112
108 116
108 124
108 128
109 110
109 112
109 116
109 124
109 128
110 128
111 124
111 126
111 127
112 113
112 116
112 117
112 118
112 124
112 126
112 127
113 114
113 115
113 116
113 117
113 118
113 123
113 124
113 126
113 127
113 128
114 115
114 119
114 120
114 121
114 122
114 123
114 125
115 119
115 120
115 121
115 122
115 123
115 125
116 117
116 118
116 124
116 126
116 127
117 118
117 124
117 126
117 127
118 124
118 126
118 127
118 128
119 120
119 129
120 128
121 122
121 123
121 125
122 123
122 125
123 125
124 126
124 127
126 127
127 128
0
1 2
3 4
5 6
7
8
9 10
11 12
13
14 15
16
17
18
19
20
21
22
23 24
25
26 27
28
29 30
31 32
33
34
35 36
37 38
39
40
41
42 43
44
45
46
47
48
49
50
51
52 53
54
55 56
57
58
59
60
61
62
63
64 65
66
67
68 69
70 71
72
73
74 75
76 77
78
79
80
81
82
83
84 85
86
87
88 89
90
91 92
93 94
95
96
97 98
99
100
101 102
103
104
105
106 107
108
109
110
111
112
113 114
115 116
117
118
119
120
121
122
123 124
125
126
127 128
129
